10
0	80	87	61	84	41	46	66	39	72	
80	0	30	85	91	35	76	61	94	36	
87	30	0	8	69	19	69	2	94	7	
61	85	8	0	86	18	52	43	19	80	
84	91	69	86	0	39	27	27	42	88	
41	35	19	18	39	0	34	53	83	3	
46	76	69	52	27	34	0	18	52	100	
66	61	2	43	27	53	18	0	71	30	
39	94	94	19	42	83	52	71	0	30	
72	36	7	80	88	3	100	30	30	0	
